5317
1 0 0 0 0 1 1 0 0 1 0 0 0 0 1 0 0 1 0 0 1 1 0 0 0 0 1 0 1 0
0 0 0 0 0 0 0 0 5 5 5 5 5 6 6 6 6 6 6 6 6 6 9 9 9 9 9 14 14 14 14 14 14 14 14 14 17 17 17 17 17 17 20 20 20 20 20 20 21 20 21 20 0 21 21 21 21 26 26 26 26 26 26 26 28 28 28 28 0 28
